python/teste/teste2
4 3
2 7 1 4 0 4
0 8 1 7 2 3
0 3 1 3 2 3
0 4 2 5 1 3
